
(set-option :produce-models true)
(set-option :inline-size-limit 10000)

(declare-const var0 String)

(push 1)
(assert (str.in.re var0 (re.* (re.range "\x01" "\xff"))))
(assert (str.in.re var0 (re.++ (re.*? re.allchar) (re.++ (re.++ (re.union (re.++ (str.to.re "") ((_ re.capture 1) (str.to.re "+"))) (str.to.re "")) (re.++ (re.union (re.++ (str.to.re "") ((_ re.capture 2) (str.to.re "("))) (str.to.re "")) (re.++ (re.union (re.union (re.union (re.++ ((_ re.capture 3) (re.+ (re.range "0" "9"))) (re.++ ((_ re.capture 4) (re.+ (re.range "0" "9"))) (re.++ ((_ re.capture 5) (re.+ (re.range "0" "9"))) ((_ re.capture 6) (re.+ (re.range "0" "9")))))) (re.++ ((_ re.capture 7) (re.+ (re.range "0" "9"))) (re.++ ((_ re.capture 8) (re.+ (re.range "0" "9"))) ((_ re.capture 9) (re.+ (re.range "0" "9")))))) (re.++ ((_ re.capture 10) (re.+ (re.range "0" "9"))) ((_ re.capture 11) (re.+ (re.range "0" "9"))))) ((_ re.capture 12) (re.+ (re.range "0" "9")))) (re.++ (re.union (re.++ (str.to.re "") ((_ re.capture 13) (str.to.re ")"))) (str.to.re "")) (re.++ (re.union (re.++ (str.to.re "") ((_ re.capture 14) (re.union (str.to.re " ") (re.union (str.to.re "\u{0b}") (re.union (str.to.re "\u{0a}") (re.union (str.to.re "\u{0d}") (re.union (str.to.re "\u{09}") (str.to.re "\u{0c}")))))))) (str.to.re "")) (re.++ (re.union (re.++ (str.to.re "") ((_ re.capture 15) (str.to.re "-"))) (str.to.re "")) (re.++ (re.union (re.union (re.++ ((_ re.capture 16) (re.+ (re.range "0" "9"))) (re.++ ((_ re.capture 17) (re.+ (re.range "0" "9"))) ((_ re.capture 18) (re.+ (re.range "0" "9"))))) (re.++ ((_ re.capture 19) (re.+ (re.range "0" "9"))) ((_ re.capture 20) (re.+ (re.range "0" "9"))))) ((_ re.capture 21) (re.+ (re.range "0" "9")))) (re.++ (re.union (re.++ (str.to.re "") ((_ re.capture 22) (re.union (str.to.re " ") (re.union (str.to.re "\u{0b}") (re.union (str.to.re "\u{0a}") (re.union (str.to.re "\u{0d}") (re.union (str.to.re "\u{09}") (str.to.re "\u{0c}")))))))) (str.to.re "")) (re.++ (re.union (re.++ (str.to.re "") ((_ re.capture 23) (str.to.re "-"))) (str.to.re "")) (re.++ (re.union (re.union (re.union (re.++ ((_ re.capture 24) (re.+ (re.range "0" "9"))) (re.++ ((_ re.capture 25) (re.+ (re.range "0" "9"))) (re.++ ((_ re.capture 26) (re.+ (re.range "0" "9"))) ((_ re.capture 27) (re.+ (re.range "0" "9")))))) (re.++ ((_ re.capture 28) (re.+ (re.range "0" "9"))) (re.++ ((_ re.capture 29) (re.+ (re.range "0" "9"))) ((_ re.capture 30) (re.+ (re.range "0" "9")))))) (re.++ ((_ re.capture 31) (re.+ (re.range "0" "9"))) ((_ re.capture 32) (re.+ (re.range "0" "9"))))) ((_ re.capture 33) (re.+ (re.range "0" "9")))) (re.++ (re.union (re.++ (str.to.re "") ((_ re.capture 34) (re.union (str.to.re " ") (re.union (str.to.re "\u{0b}") (re.union (str.to.re "\u{0a}") (re.union (str.to.re "\u{0d}") (re.union (str.to.re "\u{09}") (str.to.re "\u{0c}")))))))) (str.to.re "")) (re.++ (re.union (re.++ (str.to.re "") ((_ re.capture 35) (str.to.re "-"))) (str.to.re "")) (re.++ (re.union (re.union (re.union (re.++ ((_ re.capture 36) (re.+ (re.range "0" "9"))) (re.++ ((_ re.capture 37) (re.+ (re.range "0" "9"))) (re.++ ((_ re.capture 38) (re.+ (re.range "0" "9"))) ((_ re.capture 39) (re.+ (re.range "0" "9")))))) (re.++ ((_ re.capture 40) (re.+ (re.range "0" "9"))) (re.++ ((_ re.capture 41) (re.+ (re.range "0" "9"))) ((_ re.capture 42) (re.+ (re.range "0" "9")))))) (re.++ ((_ re.capture 43) (re.+ (re.range "0" "9"))) ((_ re.capture 44) (re.+ (re.range "0" "9"))))) ((_ re.capture 45) (re.+ (re.range "0" "9")))) (re.++ (re.union (re.++ (str.to.re "") ((_ re.capture 46) (re.union (str.to.re " ") (re.union (str.to.re "\u{0b}") (re.union (str.to.re "\u{0a}") (re.union (str.to.re "\u{0d}") (re.union (str.to.re "\u{09}") (str.to.re "\u{0c}")))))))) (str.to.re "")) (re.++ (re.union (re.++ (str.to.re "") ((_ re.capture 47) (str.to.re "-"))) (str.to.re "")) (re.union (re.union (re.union (re.++ ((_ re.capture 48) (re.+ (re.range "0" "9"))) (re.++ ((_ re.capture 49) (re.+ (re.range "0" "9"))) (re.++ ((_ re.capture 50) (re.+ (re.range "0" "9"))) ((_ re.capture 51) (re.+ (re.range "0" "9")))))) (re.++ ((_ re.capture 52) (re.+ (re.range "0" "9"))) (re.++ ((_ re.capture 53) (re.+ (re.range "0" "9"))) ((_ re.capture 54) (re.+ (re.range "0" "9")))))) (re.++ ((_ re.capture 55) (re.+ (re.range "0" "9"))) ((_ re.capture 56) (re.+ (re.range "0" "9"))))) ((_ re.capture 57) (re.+ (re.range "0" "9"))))))))))))))))))) re.all))))	; match!==null
(assert (not (str.in.re ((_ str.extract 1) var0 (re.++ (re.*? re.allchar) (re.++ (re.++ (re.union (re.++ (str.to.re "") ((_ re.capture 1) (str.to.re "+"))) (str.to.re "")) (re.++ (re.union (re.++ (str.to.re "") ((_ re.capture 2) (str.to.re "("))) (str.to.re "")) (re.++ (re.union (re.union (re.union (re.++ ((_ re.capture 3) (re.+ (re.range "0" "9"))) (re.++ ((_ re.capture 4) (re.+ (re.range "0" "9"))) (re.++ ((_ re.capture 5) (re.+ (re.range "0" "9"))) ((_ re.capture 6) (re.+ (re.range "0" "9")))))) (re.++ ((_ re.capture 7) (re.+ (re.range "0" "9"))) (re.++ ((_ re.capture 8) (re.+ (re.range "0" "9"))) ((_ re.capture 9) (re.+ (re.range "0" "9")))))) (re.++ ((_ re.capture 10) (re.+ (re.range "0" "9"))) ((_ re.capture 11) (re.+ (re.range "0" "9"))))) ((_ re.capture 12) (re.+ (re.range "0" "9")))) (re.++ (re.union (re.++ (str.to.re "") ((_ re.capture 13) (str.to.re ")"))) (str.to.re "")) (re.++ (re.union (re.++ (str.to.re "") ((_ re.capture 14) (re.union (str.to.re " ") (re.union (str.to.re "\u{0b}") (re.union (str.to.re "\u{0a}") (re.union (str.to.re "\u{0d}") (re.union (str.to.re "\u{09}") (str.to.re "\u{0c}")))))))) (str.to.re "")) (re.++ (re.union (re.++ (str.to.re "") ((_ re.capture 15) (str.to.re "-"))) (str.to.re "")) (re.++ (re.union (re.union (re.++ ((_ re.capture 16) (re.+ (re.range "0" "9"))) (re.++ ((_ re.capture 17) (re.+ (re.range "0" "9"))) ((_ re.capture 18) (re.+ (re.range "0" "9"))))) (re.++ ((_ re.capture 19) (re.+ (re.range "0" "9"))) ((_ re.capture 20) (re.+ (re.range "0" "9"))))) ((_ re.capture 21) (re.+ (re.range "0" "9")))) (re.++ (re.union (re.++ (str.to.re "") ((_ re.capture 22) (re.union (str.to.re " ") (re.union (str.to.re "\u{0b}") (re.union (str.to.re "\u{0a}") (re.union (str.to.re "\u{0d}") (re.union (str.to.re "\u{09}") (str.to.re "\u{0c}")))))))) (str.to.re "")) (re.++ (re.union (re.++ (str.to.re "") ((_ re.capture 23) (str.to.re "-"))) (str.to.re "")) (re.++ (re.union (re.union (re.union (re.++ ((_ re.capture 24) (re.+ (re.range "0" "9"))) (re.++ ((_ re.capture 25) (re.+ (re.range "0" "9"))) (re.++ ((_ re.capture 26) (re.+ (re.range "0" "9"))) ((_ re.capture 27) (re.+ (re.range "0" "9")))))) (re.++ ((_ re.capture 28) (re.+ (re.range "0" "9"))) (re.++ ((_ re.capture 29) (re.+ (re.range "0" "9"))) ((_ re.capture 30) (re.+ (re.range "0" "9")))))) (re.++ ((_ re.capture 31) (re.+ (re.range "0" "9"))) ((_ re.capture 32) (re.+ (re.range "0" "9"))))) ((_ re.capture 33) (re.+ (re.range "0" "9")))) (re.++ (re.union (re.++ (str.to.re "") ((_ re.capture 34) (re.union (str.to.re " ") (re.union (str.to.re "\u{0b}") (re.union (str.to.re "\u{0a}") (re.union (str.to.re "\u{0d}") (re.union (str.to.re "\u{09}") (str.to.re "\u{0c}")))))))) (str.to.re "")) (re.++ (re.union (re.++ (str.to.re "") ((_ re.capture 35) (str.to.re "-"))) (str.to.re "")) (re.++ (re.union (re.union (re.union (re.++ ((_ re.capture 36) (re.+ (re.range "0" "9"))) (re.++ ((_ re.capture 37) (re.+ (re.range "0" "9"))) (re.++ ((_ re.capture 38) (re.+ (re.range "0" "9"))) ((_ re.capture 39) (re.+ (re.range "0" "9")))))) (re.++ ((_ re.capture 40) (re.+ (re.range "0" "9"))) (re.++ ((_ re.capture 41) (re.+ (re.range "0" "9"))) ((_ re.capture 42) (re.+ (re.range "0" "9")))))) (re.++ ((_ re.capture 43) (re.+ (re.range "0" "9"))) ((_ re.capture 44) (re.+ (re.range "0" "9"))))) ((_ re.capture 45) (re.+ (re.range "0" "9")))) (re.++ (re.union (re.++ (str.to.re "") ((_ re.capture 46) (re.union (str.to.re " ") (re.union (str.to.re "\u{0b}") (re.union (str.to.re "\u{0a}") (re.union (str.to.re "\u{0d}") (re.union (str.to.re "\u{09}") (str.to.re "\u{0c}")))))))) (str.to.re "")) (re.++ (re.union (re.++ (str.to.re "") ((_ re.capture 47) (str.to.re "-"))) (str.to.re "")) (re.union (re.union (re.union (re.++ ((_ re.capture 48) (re.+ (re.range "0" "9"))) (re.++ ((_ re.capture 49) (re.+ (re.range "0" "9"))) (re.++ ((_ re.capture 50) (re.+ (re.range "0" "9"))) ((_ re.capture 51) (re.+ (re.range "0" "9")))))) (re.++ ((_ re.capture 52) (re.+ (re.range "0" "9"))) (re.++ ((_ re.capture 53) (re.+ (re.range "0" "9"))) ((_ re.capture 54) (re.+ (re.range "0" "9")))))) (re.++ ((_ re.capture 55) (re.+ (re.range "0" "9"))) ((_ re.capture 56) (re.+ (re.range "0" "9"))))) ((_ re.capture 57) (re.+ (re.range "0" "9"))))))))))))))))))) re.all))) (str.to.re "\x00"))))
;match[1]!==null
(assert (str.in.re ((_ str.extract 1) var0 (re.++ (re.*? re.allchar) (re.++ (re.++ (re.union (re.++ (str.to.re "") ((_ re.capture 1) (str.to.re "+"))) (str.to.re "")) (re.++ (re.union (re.++ (str.to.re "") ((_ re.capture 2) (str.to.re "("))) (str.to.re "")) (re.++ (re.union (re.union (re.union (re.++ ((_ re.capture 3) (re.+ (re.range "0" "9"))) (re.++ ((_ re.capture 4) (re.+ (re.range "0" "9"))) (re.++ ((_ re.capture 5) (re.+ (re.range "0" "9"))) ((_ re.capture 6) (re.+ (re.range "0" "9")))))) (re.++ ((_ re.capture 7) (re.+ (re.range "0" "9"))) (re.++ ((_ re.capture 8) (re.+ (re.range "0" "9"))) ((_ re.capture 9) (re.+ (re.range "0" "9")))))) (re.++ ((_ re.capture 10) (re.+ (re.range "0" "9"))) ((_ re.capture 11) (re.+ (re.range "0" "9"))))) ((_ re.capture 12) (re.+ (re.range "0" "9")))) (re.++ (re.union (re.++ (str.to.re "") ((_ re.capture 13) (str.to.re ")"))) (str.to.re "")) (re.++ (re.union (re.++ (str.to.re "") ((_ re.capture 14) (re.union (str.to.re " ") (re.union (str.to.re "\u{0b}") (re.union (str.to.re "\u{0a}") (re.union (str.to.re "\u{0d}") (re.union (str.to.re "\u{09}") (str.to.re "\u{0c}")))))))) (str.to.re "")) (re.++ (re.union (re.++ (str.to.re "") ((_ re.capture 15) (str.to.re "-"))) (str.to.re "")) (re.++ (re.union (re.union (re.++ ((_ re.capture 16) (re.+ (re.range "0" "9"))) (re.++ ((_ re.capture 17) (re.+ (re.range "0" "9"))) ((_ re.capture 18) (re.+ (re.range "0" "9"))))) (re.++ ((_ re.capture 19) (re.+ (re.range "0" "9"))) ((_ re.capture 20) (re.+ (re.range "0" "9"))))) ((_ re.capture 21) (re.+ (re.range "0" "9")))) (re.++ (re.union (re.++ (str.to.re "") ((_ re.capture 22) (re.union (str.to.re " ") (re.union (str.to.re "\u{0b}") (re.union (str.to.re "\u{0a}") (re.union (str.to.re "\u{0d}") (re.union (str.to.re "\u{09}") (str.to.re "\u{0c}")))))))) (str.to.re "")) (re.++ (re.union (re.++ (str.to.re "") ((_ re.capture 23) (str.to.re "-"))) (str.to.re "")) (re.++ (re.union (re.union (re.union (re.++ ((_ re.capture 24) (re.+ (re.range "0" "9"))) (re.++ ((_ re.capture 25) (re.+ (re.range "0" "9"))) (re.++ ((_ re.capture 26) (re.+ (re.range "0" "9"))) ((_ re.capture 27) (re.+ (re.range "0" "9")))))) (re.++ ((_ re.capture 28) (re.+ (re.range "0" "9"))) (re.++ ((_ re.capture 29) (re.+ (re.range "0" "9"))) ((_ re.capture 30) (re.+ (re.range "0" "9")))))) (re.++ ((_ re.capture 31) (re.+ (re.range "0" "9"))) ((_ re.capture 32) (re.+ (re.range "0" "9"))))) ((_ re.capture 33) (re.+ (re.range "0" "9")))) (re.++ (re.union (re.++ (str.to.re "") ((_ re.capture 34) (re.union (str.to.re " ") (re.union (str.to.re "\u{0b}") (re.union (str.to.re "\u{0a}") (re.union (str.to.re "\u{0d}") (re.union (str.to.re "\u{09}") (str.to.re "\u{0c}")))))))) (str.to.re "")) (re.++ (re.union (re.++ (str.to.re "") ((_ re.capture 35) (str.to.re "-"))) (str.to.re "")) (re.++ (re.union (re.union (re.union (re.++ ((_ re.capture 36) (re.+ (re.range "0" "9"))) (re.++ ((_ re.capture 37) (re.+ (re.range "0" "9"))) (re.++ ((_ re.capture 38) (re.+ (re.range "0" "9"))) ((_ re.capture 39) (re.+ (re.range "0" "9")))))) (re.++ ((_ re.capture 40) (re.+ (re.range "0" "9"))) (re.++ ((_ re.capture 41) (re.+ (re.range "0" "9"))) ((_ re.capture 42) (re.+ (re.range "0" "9")))))) (re.++ ((_ re.capture 43) (re.+ (re.range "0" "9"))) ((_ re.capture 44) (re.+ (re.range "0" "9"))))) ((_ re.capture 45) (re.+ (re.range "0" "9")))) (re.++ (re.union (re.++ (str.to.re "") ((_ re.capture 46) (re.union (str.to.re " ") (re.union (str.to.re "\u{0b}") (re.union (str.to.re "\u{0a}") (re.union (str.to.re "\u{0d}") (re.union (str.to.re "\u{09}") (str.to.re "\u{0c}")))))))) (str.to.re "")) (re.++ (re.union (re.++ (str.to.re "") ((_ re.capture 47) (str.to.re "-"))) (str.to.re "")) (re.union (re.union (re.union (re.++ ((_ re.capture 48) (re.+ (re.range "0" "9"))) (re.++ ((_ re.capture 49) (re.+ (re.range "0" "9"))) (re.++ ((_ re.capture 50) (re.+ (re.range "0" "9"))) ((_ re.capture 51) (re.+ (re.range "0" "9")))))) (re.++ ((_ re.capture 52) (re.+ (re.range "0" "9"))) (re.++ ((_ re.capture 53) (re.+ (re.range "0" "9"))) ((_ re.capture 54) (re.+ (re.range "0" "9")))))) (re.++ ((_ re.capture 55) (re.+ (re.range "0" "9"))) ((_ re.capture 56) (re.+ (re.range "0" "9"))))) ((_ re.capture 57) (re.+ (re.range "0" "9"))))))))))))))))))) re.all))) (re.++ re.all(re.+ (re.range "a" "z")) re.all) ))
;/[a-z]+/.test(match[1]) == true
(check-sat)
(get-model)
(pop 1)
(push 1)
(assert (str.in.re var0 (re.* (re.range "\x01" "\xff"))))
(assert (str.in.re var0 (re.++ (re.*? re.allchar) (re.++ (re.++ (re.union (re.++ (str.to.re "") ((_ re.capture 1) (str.to.re "+"))) (str.to.re "")) (re.++ (re.union (re.++ (str.to.re "") ((_ re.capture 2) (str.to.re "("))) (str.to.re "")) (re.++ (re.union (re.union (re.union (re.++ ((_ re.capture 3) (re.+ (re.range "0" "9"))) (re.++ ((_ re.capture 4) (re.+ (re.range "0" "9"))) (re.++ ((_ re.capture 5) (re.+ (re.range "0" "9"))) ((_ re.capture 6) (re.+ (re.range "0" "9")))))) (re.++ ((_ re.capture 7) (re.+ (re.range "0" "9"))) (re.++ ((_ re.capture 8) (re.+ (re.range "0" "9"))) ((_ re.capture 9) (re.+ (re.range "0" "9")))))) (re.++ ((_ re.capture 10) (re.+ (re.range "0" "9"))) ((_ re.capture 11) (re.+ (re.range "0" "9"))))) ((_ re.capture 12) (re.+ (re.range "0" "9")))) (re.++ (re.union (re.++ (str.to.re "") ((_ re.capture 13) (str.to.re ")"))) (str.to.re "")) (re.++ (re.union (re.++ (str.to.re "") ((_ re.capture 14) (re.union (str.to.re " ") (re.union (str.to.re "\u{0b}") (re.union (str.to.re "\u{0a}") (re.union (str.to.re "\u{0d}") (re.union (str.to.re "\u{09}") (str.to.re "\u{0c}")))))))) (str.to.re "")) (re.++ (re.union (re.++ (str.to.re "") ((_ re.capture 15) (str.to.re "-"))) (str.to.re "")) (re.++ (re.union (re.union (re.++ ((_ re.capture 16) (re.+ (re.range "0" "9"))) (re.++ ((_ re.capture 17) (re.+ (re.range "0" "9"))) ((_ re.capture 18) (re.+ (re.range "0" "9"))))) (re.++ ((_ re.capture 19) (re.+ (re.range "0" "9"))) ((_ re.capture 20) (re.+ (re.range "0" "9"))))) ((_ re.capture 21) (re.+ (re.range "0" "9")))) (re.++ (re.union (re.++ (str.to.re "") ((_ re.capture 22) (re.union (str.to.re " ") (re.union (str.to.re "\u{0b}") (re.union (str.to.re "\u{0a}") (re.union (str.to.re "\u{0d}") (re.union (str.to.re "\u{09}") (str.to.re "\u{0c}")))))))) (str.to.re "")) (re.++ (re.union (re.++ (str.to.re "") ((_ re.capture 23) (str.to.re "-"))) (str.to.re "")) (re.++ (re.union (re.union (re.union (re.++ ((_ re.capture 24) (re.+ (re.range "0" "9"))) (re.++ ((_ re.capture 25) (re.+ (re.range "0" "9"))) (re.++ ((_ re.capture 26) (re.+ (re.range "0" "9"))) ((_ re.capture 27) (re.+ (re.range "0" "9")))))) (re.++ ((_ re.capture 28) (re.+ (re.range "0" "9"))) (re.++ ((_ re.capture 29) (re.+ (re.range "0" "9"))) ((_ re.capture 30) (re.+ (re.range "0" "9")))))) (re.++ ((_ re.capture 31) (re.+ (re.range "0" "9"))) ((_ re.capture 32) (re.+ (re.range "0" "9"))))) ((_ re.capture 33) (re.+ (re.range "0" "9")))) (re.++ (re.union (re.++ (str.to.re "") ((_ re.capture 34) (re.union (str.to.re " ") (re.union (str.to.re "\u{0b}") (re.union (str.to.re "\u{0a}") (re.union (str.to.re "\u{0d}") (re.union (str.to.re "\u{09}") (str.to.re "\u{0c}")))))))) (str.to.re "")) (re.++ (re.union (re.++ (str.to.re "") ((_ re.capture 35) (str.to.re "-"))) (str.to.re "")) (re.++ (re.union (re.union (re.union (re.++ ((_ re.capture 36) (re.+ (re.range "0" "9"))) (re.++ ((_ re.capture 37) (re.+ (re.range "0" "9"))) (re.++ ((_ re.capture 38) (re.+ (re.range "0" "9"))) ((_ re.capture 39) (re.+ (re.range "0" "9")))))) (re.++ ((_ re.capture 40) (re.+ (re.range "0" "9"))) (re.++ ((_ re.capture 41) (re.+ (re.range "0" "9"))) ((_ re.capture 42) (re.+ (re.range "0" "9")))))) (re.++ ((_ re.capture 43) (re.+ (re.range "0" "9"))) ((_ re.capture 44) (re.+ (re.range "0" "9"))))) ((_ re.capture 45) (re.+ (re.range "0" "9")))) (re.++ (re.union (re.++ (str.to.re "") ((_ re.capture 46) (re.union (str.to.re " ") (re.union (str.to.re "\u{0b}") (re.union (str.to.re "\u{0a}") (re.union (str.to.re "\u{0d}") (re.union (str.to.re "\u{09}") (str.to.re "\u{0c}")))))))) (str.to.re "")) (re.++ (re.union (re.++ (str.to.re "") ((_ re.capture 47) (str.to.re "-"))) (str.to.re "")) (re.union (re.union (re.union (re.++ ((_ re.capture 48) (re.+ (re.range "0" "9"))) (re.++ ((_ re.capture 49) (re.+ (re.range "0" "9"))) (re.++ ((_ re.capture 50) (re.+ (re.range "0" "9"))) ((_ re.capture 51) (re.+ (re.range "0" "9")))))) (re.++ ((_ re.capture 52) (re.+ (re.range "0" "9"))) (re.++ ((_ re.capture 53) (re.+ (re.range "0" "9"))) ((_ re.capture 54) (re.+ (re.range "0" "9")))))) (re.++ ((_ re.capture 55) (re.+ (re.range "0" "9"))) ((_ re.capture 56) (re.+ (re.range "0" "9"))))) ((_ re.capture 57) (re.+ (re.range "0" "9"))))))))))))))))))) re.all))))	; match!==null
(assert (not (str.in.re ((_ str.extract 1) var0 (re.++ (re.*? re.allchar) (re.++ (re.++ (re.union (re.++ (str.to.re "") ((_ re.capture 1) (str.to.re "+"))) (str.to.re "")) (re.++ (re.union (re.++ (str.to.re "") ((_ re.capture 2) (str.to.re "("))) (str.to.re "")) (re.++ (re.union (re.union (re.union (re.++ ((_ re.capture 3) (re.+ (re.range "0" "9"))) (re.++ ((_ re.capture 4) (re.+ (re.range "0" "9"))) (re.++ ((_ re.capture 5) (re.+ (re.range "0" "9"))) ((_ re.capture 6) (re.+ (re.range "0" "9")))))) (re.++ ((_ re.capture 7) (re.+ (re.range "0" "9"))) (re.++ ((_ re.capture 8) (re.+ (re.range "0" "9"))) ((_ re.capture 9) (re.+ (re.range "0" "9")))))) (re.++ ((_ re.capture 10) (re.+ (re.range "0" "9"))) ((_ re.capture 11) (re.+ (re.range "0" "9"))))) ((_ re.capture 12) (re.+ (re.range "0" "9")))) (re.++ (re.union (re.++ (str.to.re "") ((_ re.capture 13) (str.to.re ")"))) (str.to.re "")) (re.++ (re.union (re.++ (str.to.re "") ((_ re.capture 14) (re.union (str.to.re " ") (re.union (str.to.re "\u{0b}") (re.union (str.to.re "\u{0a}") (re.union (str.to.re "\u{0d}") (re.union (str.to.re "\u{09}") (str.to.re "\u{0c}")))))))) (str.to.re "")) (re.++ (re.union (re.++ (str.to.re "") ((_ re.capture 15) (str.to.re "-"))) (str.to.re "")) (re.++ (re.union (re.union (re.++ ((_ re.capture 16) (re.+ (re.range "0" "9"))) (re.++ ((_ re.capture 17) (re.+ (re.range "0" "9"))) ((_ re.capture 18) (re.+ (re.range "0" "9"))))) (re.++ ((_ re.capture 19) (re.+ (re.range "0" "9"))) ((_ re.capture 20) (re.+ (re.range "0" "9"))))) ((_ re.capture 21) (re.+ (re.range "0" "9")))) (re.++ (re.union (re.++ (str.to.re "") ((_ re.capture 22) (re.union (str.to.re " ") (re.union (str.to.re "\u{0b}") (re.union (str.to.re "\u{0a}") (re.union (str.to.re "\u{0d}") (re.union (str.to.re "\u{09}") (str.to.re "\u{0c}")))))))) (str.to.re "")) (re.++ (re.union (re.++ (str.to.re "") ((_ re.capture 23) (str.to.re "-"))) (str.to.re "")) (re.++ (re.union (re.union (re.union (re.++ ((_ re.capture 24) (re.+ (re.range "0" "9"))) (re.++ ((_ re.capture 25) (re.+ (re.range "0" "9"))) (re.++ ((_ re.capture 26) (re.+ (re.range "0" "9"))) ((_ re.capture 27) (re.+ (re.range "0" "9")))))) (re.++ ((_ re.capture 28) (re.+ (re.range "0" "9"))) (re.++ ((_ re.capture 29) (re.+ (re.range "0" "9"))) ((_ re.capture 30) (re.+ (re.range "0" "9")))))) (re.++ ((_ re.capture 31) (re.+ (re.range "0" "9"))) ((_ re.capture 32) (re.+ (re.range "0" "9"))))) ((_ re.capture 33) (re.+ (re.range "0" "9")))) (re.++ (re.union (re.++ (str.to.re "") ((_ re.capture 34) (re.union (str.to.re " ") (re.union (str.to.re "\u{0b}") (re.union (str.to.re "\u{0a}") (re.union (str.to.re "\u{0d}") (re.union (str.to.re "\u{09}") (str.to.re "\u{0c}")))))))) (str.to.re "")) (re.++ (re.union (re.++ (str.to.re "") ((_ re.capture 35) (str.to.re "-"))) (str.to.re "")) (re.++ (re.union (re.union (re.union (re.++ ((_ re.capture 36) (re.+ (re.range "0" "9"))) (re.++ ((_ re.capture 37) (re.+ (re.range "0" "9"))) (re.++ ((_ re.capture 38) (re.+ (re.range "0" "9"))) ((_ re.capture 39) (re.+ (re.range "0" "9")))))) (re.++ ((_ re.capture 40) (re.+ (re.range "0" "9"))) (re.++ ((_ re.capture 41) (re.+ (re.range "0" "9"))) ((_ re.capture 42) (re.+ (re.range "0" "9")))))) (re.++ ((_ re.capture 43) (re.+ (re.range "0" "9"))) ((_ re.capture 44) (re.+ (re.range "0" "9"))))) ((_ re.capture 45) (re.+ (re.range "0" "9")))) (re.++ (re.union (re.++ (str.to.re "") ((_ re.capture 46) (re.union (str.to.re " ") (re.union (str.to.re "\u{0b}") (re.union (str.to.re "\u{0a}") (re.union (str.to.re "\u{0d}") (re.union (str.to.re "\u{09}") (str.to.re "\u{0c}")))))))) (str.to.re "")) (re.++ (re.union (re.++ (str.to.re "") ((_ re.capture 47) (str.to.re "-"))) (str.to.re "")) (re.union (re.union (re.union (re.++ ((_ re.capture 48) (re.+ (re.range "0" "9"))) (re.++ ((_ re.capture 49) (re.+ (re.range "0" "9"))) (re.++ ((_ re.capture 50) (re.+ (re.range "0" "9"))) ((_ re.capture 51) (re.+ (re.range "0" "9")))))) (re.++ ((_ re.capture 52) (re.+ (re.range "0" "9"))) (re.++ ((_ re.capture 53) (re.+ (re.range "0" "9"))) ((_ re.capture 54) (re.+ (re.range "0" "9")))))) (re.++ ((_ re.capture 55) (re.+ (re.range "0" "9"))) ((_ re.capture 56) (re.+ (re.range "0" "9"))))) ((_ re.capture 57) (re.+ (re.range "0" "9"))))))))))))))))))) re.all))) (str.to.re "\x00"))))	
;match[1]!==null
(assert (not (str.in.re ((_ str.extract 1) var0 (re.++ (re.*? re.allchar) (re.++ (re.++ (re.union (re.++ (str.to.re "") ((_ re.capture 1) (str.to.re "+"))) (str.to.re "")) (re.++ (re.union (re.++ (str.to.re "") ((_ re.capture 2) (str.to.re "("))) (str.to.re "")) (re.++ (re.union (re.union (re.union (re.++ ((_ re.capture 3) (re.+ (re.range "0" "9"))) (re.++ ((_ re.capture 4) (re.+ (re.range "0" "9"))) (re.++ ((_ re.capture 5) (re.+ (re.range "0" "9"))) ((_ re.capture 6) (re.+ (re.range "0" "9")))))) (re.++ ((_ re.capture 7) (re.+ (re.range "0" "9"))) (re.++ ((_ re.capture 8) (re.+ (re.range "0" "9"))) ((_ re.capture 9) (re.+ (re.range "0" "9")))))) (re.++ ((_ re.capture 10) (re.+ (re.range "0" "9"))) ((_ re.capture 11) (re.+ (re.range "0" "9"))))) ((_ re.capture 12) (re.+ (re.range "0" "9")))) (re.++ (re.union (re.++ (str.to.re "") ((_ re.capture 13) (str.to.re ")"))) (str.to.re "")) (re.++ (re.union (re.++ (str.to.re "") ((_ re.capture 14) (re.union (str.to.re " ") (re.union (str.to.re "\u{0b}") (re.union (str.to.re "\u{0a}") (re.union (str.to.re "\u{0d}") (re.union (str.to.re "\u{09}") (str.to.re "\u{0c}")))))))) (str.to.re "")) (re.++ (re.union (re.++ (str.to.re "") ((_ re.capture 15) (str.to.re "-"))) (str.to.re "")) (re.++ (re.union (re.union (re.++ ((_ re.capture 16) (re.+ (re.range "0" "9"))) (re.++ ((_ re.capture 17) (re.+ (re.range "0" "9"))) ((_ re.capture 18) (re.+ (re.range "0" "9"))))) (re.++ ((_ re.capture 19) (re.+ (re.range "0" "9"))) ((_ re.capture 20) (re.+ (re.range "0" "9"))))) ((_ re.capture 21) (re.+ (re.range "0" "9")))) (re.++ (re.union (re.++ (str.to.re "") ((_ re.capture 22) (re.union (str.to.re " ") (re.union (str.to.re "\u{0b}") (re.union (str.to.re "\u{0a}") (re.union (str.to.re "\u{0d}") (re.union (str.to.re "\u{09}") (str.to.re "\u{0c}")))))))) (str.to.re "")) (re.++ (re.union (re.++ (str.to.re "") ((_ re.capture 23) (str.to.re "-"))) (str.to.re "")) (re.++ (re.union (re.union (re.union (re.++ ((_ re.capture 24) (re.+ (re.range "0" "9"))) (re.++ ((_ re.capture 25) (re.+ (re.range "0" "9"))) (re.++ ((_ re.capture 26) (re.+ (re.range "0" "9"))) ((_ re.capture 27) (re.+ (re.range "0" "9")))))) (re.++ ((_ re.capture 28) (re.+ (re.range "0" "9"))) (re.++ ((_ re.capture 29) (re.+ (re.range "0" "9"))) ((_ re.capture 30) (re.+ (re.range "0" "9")))))) (re.++ ((_ re.capture 31) (re.+ (re.range "0" "9"))) ((_ re.capture 32) (re.+ (re.range "0" "9"))))) ((_ re.capture 33) (re.+ (re.range "0" "9")))) (re.++ (re.union (re.++ (str.to.re "") ((_ re.capture 34) (re.union (str.to.re " ") (re.union (str.to.re "\u{0b}") (re.union (str.to.re "\u{0a}") (re.union (str.to.re "\u{0d}") (re.union (str.to.re "\u{09}") (str.to.re "\u{0c}")))))))) (str.to.re "")) (re.++ (re.union (re.++ (str.to.re "") ((_ re.capture 35) (str.to.re "-"))) (str.to.re "")) (re.++ (re.union (re.union (re.union (re.++ ((_ re.capture 36) (re.+ (re.range "0" "9"))) (re.++ ((_ re.capture 37) (re.+ (re.range "0" "9"))) (re.++ ((_ re.capture 38) (re.+ (re.range "0" "9"))) ((_ re.capture 39) (re.+ (re.range "0" "9")))))) (re.++ ((_ re.capture 40) (re.+ (re.range "0" "9"))) (re.++ ((_ re.capture 41) (re.+ (re.range "0" "9"))) ((_ re.capture 42) (re.+ (re.range "0" "9")))))) (re.++ ((_ re.capture 43) (re.+ (re.range "0" "9"))) ((_ re.capture 44) (re.+ (re.range "0" "9"))))) ((_ re.capture 45) (re.+ (re.range "0" "9")))) (re.++ (re.union (re.++ (str.to.re "") ((_ re.capture 46) (re.union (str.to.re " ") (re.union (str.to.re "\u{0b}") (re.union (str.to.re "\u{0a}") (re.union (str.to.re "\u{0d}") (re.union (str.to.re "\u{09}") (str.to.re "\u{0c}")))))))) (str.to.re "")) (re.++ (re.union (re.++ (str.to.re "") ((_ re.capture 47) (str.to.re "-"))) (str.to.re "")) (re.union (re.union (re.union (re.++ ((_ re.capture 48) (re.+ (re.range "0" "9"))) (re.++ ((_ re.capture 49) (re.+ (re.range "0" "9"))) (re.++ ((_ re.capture 50) (re.+ (re.range "0" "9"))) ((_ re.capture 51) (re.+ (re.range "0" "9")))))) (re.++ ((_ re.capture 52) (re.+ (re.range "0" "9"))) (re.++ ((_ re.capture 53) (re.+ (re.range "0" "9"))) ((_ re.capture 54) (re.+ (re.range "0" "9")))))) (re.++ ((_ re.capture 55) (re.+ (re.range "0" "9"))) ((_ re.capture 56) (re.+ (re.range "0" "9"))))) ((_ re.capture 57) (re.+ (re.range "0" "9"))))))))))))))))))) re.all))) (re.++ re.all(re.+ (re.range "a" "z")) re.all) )))
;/[a-z]+/.test(match[1]) == false	
(check-sat)
(get-model)
(pop 1)
(push 1)
(assert (str.in.re var0 (re.* (re.range "\x01" "\xff"))))
(assert (str.in.re var0 (re.++ (re.*? re.allchar) (re.++ (re.++ (re.union (re.++ (str.to.re "") ((_ re.capture 1) (str.to.re "+"))) (str.to.re "")) (re.++ (re.union (re.++ (str.to.re "") ((_ re.capture 2) (str.to.re "("))) (str.to.re "")) (re.++ (re.union (re.union (re.union (re.++ ((_ re.capture 3) (re.+ (re.range "0" "9"))) (re.++ ((_ re.capture 4) (re.+ (re.range "0" "9"))) (re.++ ((_ re.capture 5) (re.+ (re.range "0" "9"))) ((_ re.capture 6) (re.+ (re.range "0" "9")))))) (re.++ ((_ re.capture 7) (re.+ (re.range "0" "9"))) (re.++ ((_ re.capture 8) (re.+ (re.range "0" "9"))) ((_ re.capture 9) (re.+ (re.range "0" "9")))))) (re.++ ((_ re.capture 10) (re.+ (re.range "0" "9"))) ((_ re.capture 11) (re.+ (re.range "0" "9"))))) ((_ re.capture 12) (re.+ (re.range "0" "9")))) (re.++ (re.union (re.++ (str.to.re "") ((_ re.capture 13) (str.to.re ")"))) (str.to.re "")) (re.++ (re.union (re.++ (str.to.re "") ((_ re.capture 14) (re.union (str.to.re " ") (re.union (str.to.re "\u{0b}") (re.union (str.to.re "\u{0a}") (re.union (str.to.re "\u{0d}") (re.union (str.to.re "\u{09}") (str.to.re "\u{0c}")))))))) (str.to.re "")) (re.++ (re.union (re.++ (str.to.re "") ((_ re.capture 15) (str.to.re "-"))) (str.to.re "")) (re.++ (re.union (re.union (re.++ ((_ re.capture 16) (re.+ (re.range "0" "9"))) (re.++ ((_ re.capture 17) (re.+ (re.range "0" "9"))) ((_ re.capture 18) (re.+ (re.range "0" "9"))))) (re.++ ((_ re.capture 19) (re.+ (re.range "0" "9"))) ((_ re.capture 20) (re.+ (re.range "0" "9"))))) ((_ re.capture 21) (re.+ (re.range "0" "9")))) (re.++ (re.union (re.++ (str.to.re "") ((_ re.capture 22) (re.union (str.to.re " ") (re.union (str.to.re "\u{0b}") (re.union (str.to.re "\u{0a}") (re.union (str.to.re "\u{0d}") (re.union (str.to.re "\u{09}") (str.to.re "\u{0c}")))))))) (str.to.re "")) (re.++ (re.union (re.++ (str.to.re "") ((_ re.capture 23) (str.to.re "-"))) (str.to.re "")) (re.++ (re.union (re.union (re.union (re.++ ((_ re.capture 24) (re.+ (re.range "0" "9"))) (re.++ ((_ re.capture 25) (re.+ (re.range "0" "9"))) (re.++ ((_ re.capture 26) (re.+ (re.range "0" "9"))) ((_ re.capture 27) (re.+ (re.range "0" "9")))))) (re.++ ((_ re.capture 28) (re.+ (re.range "0" "9"))) (re.++ ((_ re.capture 29) (re.+ (re.range "0" "9"))) ((_ re.capture 30) (re.+ (re.range "0" "9")))))) (re.++ ((_ re.capture 31) (re.+ (re.range "0" "9"))) ((_ re.capture 32) (re.+ (re.range "0" "9"))))) ((_ re.capture 33) (re.+ (re.range "0" "9")))) (re.++ (re.union (re.++ (str.to.re "") ((_ re.capture 34) (re.union (str.to.re " ") (re.union (str.to.re "\u{0b}") (re.union (str.to.re "\u{0a}") (re.union (str.to.re "\u{0d}") (re.union (str.to.re "\u{09}") (str.to.re "\u{0c}")))))))) (str.to.re "")) (re.++ (re.union (re.++ (str.to.re "") ((_ re.capture 35) (str.to.re "-"))) (str.to.re "")) (re.++ (re.union (re.union (re.union (re.++ ((_ re.capture 36) (re.+ (re.range "0" "9"))) (re.++ ((_ re.capture 37) (re.+ (re.range "0" "9"))) (re.++ ((_ re.capture 38) (re.+ (re.range "0" "9"))) ((_ re.capture 39) (re.+ (re.range "0" "9")))))) (re.++ ((_ re.capture 40) (re.+ (re.range "0" "9"))) (re.++ ((_ re.capture 41) (re.+ (re.range "0" "9"))) ((_ re.capture 42) (re.+ (re.range "0" "9")))))) (re.++ ((_ re.capture 43) (re.+ (re.range "0" "9"))) ((_ re.capture 44) (re.+ (re.range "0" "9"))))) ((_ re.capture 45) (re.+ (re.range "0" "9")))) (re.++ (re.union (re.++ (str.to.re "") ((_ re.capture 46) (re.union (str.to.re " ") (re.union (str.to.re "\u{0b}") (re.union (str.to.re "\u{0a}") (re.union (str.to.re "\u{0d}") (re.union (str.to.re "\u{09}") (str.to.re "\u{0c}")))))))) (str.to.re "")) (re.++ (re.union (re.++ (str.to.re "") ((_ re.capture 47) (str.to.re "-"))) (str.to.re "")) (re.union (re.union (re.union (re.++ ((_ re.capture 48) (re.+ (re.range "0" "9"))) (re.++ ((_ re.capture 49) (re.+ (re.range "0" "9"))) (re.++ ((_ re.capture 50) (re.+ (re.range "0" "9"))) ((_ re.capture 51) (re.+ (re.range "0" "9")))))) (re.++ ((_ re.capture 52) (re.+ (re.range "0" "9"))) (re.++ ((_ re.capture 53) (re.+ (re.range "0" "9"))) ((_ re.capture 54) (re.+ (re.range "0" "9")))))) (re.++ ((_ re.capture 55) (re.+ (re.range "0" "9"))) ((_ re.capture 56) (re.+ (re.range "0" "9"))))) ((_ re.capture 57) (re.+ (re.range "0" "9"))))))))))))))))))) re.all))))	; match!==null
(assert (str.in.re ((_ str.extract 1) var0 (re.++ (re.*? re.allchar) (re.++ (re.++ (re.union (re.++ (str.to.re "") ((_ re.capture 1) (str.to.re "+"))) (str.to.re "")) (re.++ (re.union (re.++ (str.to.re "") ((_ re.capture 2) (str.to.re "("))) (str.to.re "")) (re.++ (re.union (re.union (re.union (re.++ ((_ re.capture 3) (re.+ (re.range "0" "9"))) (re.++ ((_ re.capture 4) (re.+ (re.range "0" "9"))) (re.++ ((_ re.capture 5) (re.+ (re.range "0" "9"))) ((_ re.capture 6) (re.+ (re.range "0" "9")))))) (re.++ ((_ re.capture 7) (re.+ (re.range "0" "9"))) (re.++ ((_ re.capture 8) (re.+ (re.range "0" "9"))) ((_ re.capture 9) (re.+ (re.range "0" "9")))))) (re.++ ((_ re.capture 10) (re.+ (re.range "0" "9"))) ((_ re.capture 11) (re.+ (re.range "0" "9"))))) ((_ re.capture 12) (re.+ (re.range "0" "9")))) (re.++ (re.union (re.++ (str.to.re "") ((_ re.capture 13) (str.to.re ")"))) (str.to.re "")) (re.++ (re.union (re.++ (str.to.re "") ((_ re.capture 14) (re.union (str.to.re " ") (re.union (str.to.re "\u{0b}") (re.union (str.to.re "\u{0a}") (re.union (str.to.re "\u{0d}") (re.union (str.to.re "\u{09}") (str.to.re "\u{0c}")))))))) (str.to.re "")) (re.++ (re.union (re.++ (str.to.re "") ((_ re.capture 15) (str.to.re "-"))) (str.to.re "")) (re.++ (re.union (re.union (re.++ ((_ re.capture 16) (re.+ (re.range "0" "9"))) (re.++ ((_ re.capture 17) (re.+ (re.range "0" "9"))) ((_ re.capture 18) (re.+ (re.range "0" "9"))))) (re.++ ((_ re.capture 19) (re.+ (re.range "0" "9"))) ((_ re.capture 20) (re.+ (re.range "0" "9"))))) ((_ re.capture 21) (re.+ (re.range "0" "9")))) (re.++ (re.union (re.++ (str.to.re "") ((_ re.capture 22) (re.union (str.to.re " ") (re.union (str.to.re "\u{0b}") (re.union (str.to.re "\u{0a}") (re.union (str.to.re "\u{0d}") (re.union (str.to.re "\u{09}") (str.to.re "\u{0c}")))))))) (str.to.re "")) (re.++ (re.union (re.++ (str.to.re "") ((_ re.capture 23) (str.to.re "-"))) (str.to.re "")) (re.++ (re.union (re.union (re.union (re.++ ((_ re.capture 24) (re.+ (re.range "0" "9"))) (re.++ ((_ re.capture 25) (re.+ (re.range "0" "9"))) (re.++ ((_ re.capture 26) (re.+ (re.range "0" "9"))) ((_ re.capture 27) (re.+ (re.range "0" "9")))))) (re.++ ((_ re.capture 28) (re.+ (re.range "0" "9"))) (re.++ ((_ re.capture 29) (re.+ (re.range "0" "9"))) ((_ re.capture 30) (re.+ (re.range "0" "9")))))) (re.++ ((_ re.capture 31) (re.+ (re.range "0" "9"))) ((_ re.capture 32) (re.+ (re.range "0" "9"))))) ((_ re.capture 33) (re.+ (re.range "0" "9")))) (re.++ (re.union (re.++ (str.to.re "") ((_ re.capture 34) (re.union (str.to.re " ") (re.union (str.to.re "\u{0b}") (re.union (str.to.re "\u{0a}") (re.union (str.to.re "\u{0d}") (re.union (str.to.re "\u{09}") (str.to.re "\u{0c}")))))))) (str.to.re "")) (re.++ (re.union (re.++ (str.to.re "") ((_ re.capture 35) (str.to.re "-"))) (str.to.re "")) (re.++ (re.union (re.union (re.union (re.++ ((_ re.capture 36) (re.+ (re.range "0" "9"))) (re.++ ((_ re.capture 37) (re.+ (re.range "0" "9"))) (re.++ ((_ re.capture 38) (re.+ (re.range "0" "9"))) ((_ re.capture 39) (re.+ (re.range "0" "9")))))) (re.++ ((_ re.capture 40) (re.+ (re.range "0" "9"))) (re.++ ((_ re.capture 41) (re.+ (re.range "0" "9"))) ((_ re.capture 42) (re.+ (re.range "0" "9")))))) (re.++ ((_ re.capture 43) (re.+ (re.range "0" "9"))) ((_ re.capture 44) (re.+ (re.range "0" "9"))))) ((_ re.capture 45) (re.+ (re.range "0" "9")))) (re.++ (re.union (re.++ (str.to.re "") ((_ re.capture 46) (re.union (str.to.re " ") (re.union (str.to.re "\u{0b}") (re.union (str.to.re "\u{0a}") (re.union (str.to.re "\u{0d}") (re.union (str.to.re "\u{09}") (str.to.re "\u{0c}")))))))) (str.to.re "")) (re.++ (re.union (re.++ (str.to.re "") ((_ re.capture 47) (str.to.re "-"))) (str.to.re "")) (re.union (re.union (re.union (re.++ ((_ re.capture 48) (re.+ (re.range "0" "9"))) (re.++ ((_ re.capture 49) (re.+ (re.range "0" "9"))) (re.++ ((_ re.capture 50) (re.+ (re.range "0" "9"))) ((_ re.capture 51) (re.+ (re.range "0" "9")))))) (re.++ ((_ re.capture 52) (re.+ (re.range "0" "9"))) (re.++ ((_ re.capture 53) (re.+ (re.range "0" "9"))) ((_ re.capture 54) (re.+ (re.range "0" "9")))))) (re.++ ((_ re.capture 55) (re.+ (re.range "0" "9"))) ((_ re.capture 56) (re.+ (re.range "0" "9"))))) ((_ re.capture 57) (re.+ (re.range "0" "9"))))))))))))))))))) re.all))) (str.to.re "\x00")))
;match[1]==null
(check-sat)
(get-model)
(pop 1)
(push 1)
(assert (str.in.re var0 (re.* (re.range "\x01" "\xff"))))
(assert (not (str.in.re var0 (re.++ (re.*? re.allchar) (re.++ (re.++ (re.union (re.++ (str.to.re "") ((_ re.capture 1) (str.to.re "+"))) (str.to.re "")) (re.++ (re.union (re.++ (str.to.re "") ((_ re.capture 2) (str.to.re "("))) (str.to.re "")) (re.++ (re.union (re.union (re.union (re.++ ((_ re.capture 3) (re.+ (re.range "0" "9"))) (re.++ ((_ re.capture 4) (re.+ (re.range "0" "9"))) (re.++ ((_ re.capture 5) (re.+ (re.range "0" "9"))) ((_ re.capture 6) (re.+ (re.range "0" "9")))))) (re.++ ((_ re.capture 7) (re.+ (re.range "0" "9"))) (re.++ ((_ re.capture 8) (re.+ (re.range "0" "9"))) ((_ re.capture 9) (re.+ (re.range "0" "9")))))) (re.++ ((_ re.capture 10) (re.+ (re.range "0" "9"))) ((_ re.capture 11) (re.+ (re.range "0" "9"))))) ((_ re.capture 12) (re.+ (re.range "0" "9")))) (re.++ (re.union (re.++ (str.to.re "") ((_ re.capture 13) (str.to.re ")"))) (str.to.re "")) (re.++ (re.union (re.++ (str.to.re "") ((_ re.capture 14) (re.union (str.to.re " ") (re.union (str.to.re "\u{0b}") (re.union (str.to.re "\u{0a}") (re.union (str.to.re "\u{0d}") (re.union (str.to.re "\u{09}") (str.to.re "\u{0c}")))))))) (str.to.re "")) (re.++ (re.union (re.++ (str.to.re "") ((_ re.capture 15) (str.to.re "-"))) (str.to.re "")) (re.++ (re.union (re.union (re.++ ((_ re.capture 16) (re.+ (re.range "0" "9"))) (re.++ ((_ re.capture 17) (re.+ (re.range "0" "9"))) ((_ re.capture 18) (re.+ (re.range "0" "9"))))) (re.++ ((_ re.capture 19) (re.+ (re.range "0" "9"))) ((_ re.capture 20) (re.+ (re.range "0" "9"))))) ((_ re.capture 21) (re.+ (re.range "0" "9")))) (re.++ (re.union (re.++ (str.to.re "") ((_ re.capture 22) (re.union (str.to.re " ") (re.union (str.to.re "\u{0b}") (re.union (str.to.re "\u{0a}") (re.union (str.to.re "\u{0d}") (re.union (str.to.re "\u{09}") (str.to.re "\u{0c}")))))))) (str.to.re "")) (re.++ (re.union (re.++ (str.to.re "") ((_ re.capture 23) (str.to.re "-"))) (str.to.re "")) (re.++ (re.union (re.union (re.union (re.++ ((_ re.capture 24) (re.+ (re.range "0" "9"))) (re.++ ((_ re.capture 25) (re.+ (re.range "0" "9"))) (re.++ ((_ re.capture 26) (re.+ (re.range "0" "9"))) ((_ re.capture 27) (re.+ (re.range "0" "9")))))) (re.++ ((_ re.capture 28) (re.+ (re.range "0" "9"))) (re.++ ((_ re.capture 29) (re.+ (re.range "0" "9"))) ((_ re.capture 30) (re.+ (re.range "0" "9")))))) (re.++ ((_ re.capture 31) (re.+ (re.range "0" "9"))) ((_ re.capture 32) (re.+ (re.range "0" "9"))))) ((_ re.capture 33) (re.+ (re.range "0" "9")))) (re.++ (re.union (re.++ (str.to.re "") ((_ re.capture 34) (re.union (str.to.re " ") (re.union (str.to.re "\u{0b}") (re.union (str.to.re "\u{0a}") (re.union (str.to.re "\u{0d}") (re.union (str.to.re "\u{09}") (str.to.re "\u{0c}")))))))) (str.to.re "")) (re.++ (re.union (re.++ (str.to.re "") ((_ re.capture 35) (str.to.re "-"))) (str.to.re "")) (re.++ (re.union (re.union (re.union (re.++ ((_ re.capture 36) (re.+ (re.range "0" "9"))) (re.++ ((_ re.capture 37) (re.+ (re.range "0" "9"))) (re.++ ((_ re.capture 38) (re.+ (re.range "0" "9"))) ((_ re.capture 39) (re.+ (re.range "0" "9")))))) (re.++ ((_ re.capture 40) (re.+ (re.range "0" "9"))) (re.++ ((_ re.capture 41) (re.+ (re.range "0" "9"))) ((_ re.capture 42) (re.+ (re.range "0" "9")))))) (re.++ ((_ re.capture 43) (re.+ (re.range "0" "9"))) ((_ re.capture 44) (re.+ (re.range "0" "9"))))) ((_ re.capture 45) (re.+ (re.range "0" "9")))) (re.++ (re.union (re.++ (str.to.re "") ((_ re.capture 46) (re.union (str.to.re " ") (re.union (str.to.re "\u{0b}") (re.union (str.to.re "\u{0a}") (re.union (str.to.re "\u{0d}") (re.union (str.to.re "\u{09}") (str.to.re "\u{0c}")))))))) (str.to.re "")) (re.++ (re.union (re.++ (str.to.re "") ((_ re.capture 47) (str.to.re "-"))) (str.to.re "")) (re.union (re.union (re.union (re.++ ((_ re.capture 48) (re.+ (re.range "0" "9"))) (re.++ ((_ re.capture 49) (re.+ (re.range "0" "9"))) (re.++ ((_ re.capture 50) (re.+ (re.range "0" "9"))) ((_ re.capture 51) (re.+ (re.range "0" "9")))))) (re.++ ((_ re.capture 52) (re.+ (re.range "0" "9"))) (re.++ ((_ re.capture 53) (re.+ (re.range "0" "9"))) ((_ re.capture 54) (re.+ (re.range "0" "9")))))) (re.++ ((_ re.capture 55) (re.+ (re.range "0" "9"))) ((_ re.capture 56) (re.+ (re.range "0" "9"))))) ((_ re.capture 57) (re.+ (re.range "0" "9"))))))))))))))))))) re.all)))))	; match == null
(check-sat)
(get-model)
(pop 1)
(exit)
